(declare-fun v3 () (_ BitVec 1))
(declare-fun bvlambda_21_ () (_ BitVec 1))
(declare-fun a100 () (Array (_ BitVec 1) (_ BitVec 7)))
(declare-fun a101 () (Array (_ BitVec 15) (_ BitVec 11)))
(assert
(let (($e1 (_ bv0 1)))
(let (($e6 (_ bv1048 12)))
(let (($e10 (_ bv0 11)))
(let (($e16 (_ bv0 4)))
(let (($e22 (_ bv0 15)))
(let (($e34 (_ bv0 8)))
(let (($e126         $e22       ))
(let (($e127         $e126                             ))
(let (($e128 ((_ extract 7 1) $e127)))
(let (($e131                    $e128      ))
(let (($e132 (store a100        $e1  $e131)))
(let (($e156 (concat $e10 v3)))
(let (($e157 (bvand (bvnot $e6) $e156)))
(let (($e158 (bvand $e6 (bvnot $e156))))
(let (($e159 (bvand (bvnot $e158) (bvnot $e157))))
(let (($e179        a101             ))
(let (($e370 ((_ extract 2 2) $e159)))
(let (($e371 (select $e132 (bvnot $e370))))
(let (($e373 (concat        $e34  $e371)))
(let (($e375                    $e373       ))
(let (($e376 (select a101 $e375)))
(let (($e377 (concat $e16 $e376)))
(let (($e402        $e179                   ))
(let (($e403        $e402            ))
(let (($e404        $e403             ))
(let (($e405        $e404             ))
(let (($e406 (select $e405 $e377)))
(let (($e407 (select a100 bvlambda_21_)))
(let (($e409 (concat        $e16  $e407)))
(let (($e411                    $e409       ))
                  (bvult $e411 $e406)
                                                                                                                                                                                                                                                                                                                                                                                                                                                                                                                                                                                                                                                                                                                                                                                                                                                                                                                                                                                                                                                                                                                                               ) ) ))))))                        ))) ) ))                                                                                                                                                                                              )                   ))))                       ))  )))                                                    )           )     )     )   )    ))
